
<<< setup


<<< generate

Version identifier: 22.1.1.0 | 2022-11-28 | 9160aff4d
CPXPARAM_TimeLimit                               1800
Found incumbent of value 0.000000 after 0.00 sec. (0.01 ticks)
Tried aggregator 1 time.
MIP Presolve eliminated 17 rows and 0 columns.
Reduced MIP has 140 rows, 136 columns, and 504 nonzeros.
Reduced MIP has 120 binaries, 16 generals, 0 SOSs, and 0 indicators.
Presolve time = 0.00 sec. (0.27 ticks)
Probing time = 0.00 sec. (0.14 ticks)
Tried aggregator 1 time.
Detecting symmetries...
Reduced MIP has 140 rows, 136 columns, and 504 nonzeros.
Reduced MIP has 120 binaries, 16 generals, 0 SOSs, and 0 indicators.
Presolve time = 0.00 sec. (0.44 ticks)
Probing time = 0.00 sec. (0.15 ticks)
Clique table members: 248.
MIP emphasis: balance optimality and feasibility.
MIP search method: dynamic search.
Parallel mode: deterministic, using up to 8 threads.
Root relaxation solution time = 0.00 sec. (0.31 ticks)

        Nodes                                         Cuts/
   Node  Left     Objective  IInf  Best Integer    Best Bound    ItCnt     Gap

*     0+    0                            0.0000       17.0000              --- 
*     0+    0                            4.0000       17.0000           325.00%
      0     0       17.0000    56        4.0000       17.0000       50  325.00%
      0     0       17.0000     8        4.0000      Cuts: 10       63  325.00%
      0     0       17.0000    11        4.0000      Cuts: 15       84  325.00%
      0     0       17.0000     2        4.0000       Cuts: 4       96  325.00%
      0     0       17.0000     2        4.0000       Cuts: 8      108  325.00%
*     0+    0                           12.0000       17.0000            41.67%
*     0+    0                           17.0000       17.0000             0.00%
      0     0        cutoff             17.0000       17.0000      108    0.00%
Elapsed time = 0.01 sec. (8.44 ticks, tree = 0.01 MB, solutions = 4)

Clique cuts applied:  6
Implied bound cuts applied:  10
Zero-half cuts applied:  6
Gomory fractional cuts applied:  1

Root node processing (before b&c):
  Real time             =    0.01 sec. (8.45 ticks)
Parallel b&c, 8 threads:
  Real time             =    0.00 sec. (0.00 ticks)
  Sync time (average)   =    0.00 sec.
  Wait time (average)   =    0.00 sec.
                          ------------
Total (root+branch&cut) =    0.01 sec. (8.45 ticks)

<<< solve


OBJECTIVE: 17

<<< post process


<<< done

